benchmark_str_length/p1_10_14-1.dzn
Alphabet = {A,C,G,T};
ns = 10;
nc = 14;
sl = 14;
neighbours = [| I(C),I(A),I(A),I(C),I(C),I(A),I(A),I(A),I(A),I(A),I(C),I(C),I(A),I(A) | I(A),I(A),I(A),I(A),I(G),I(A),I(A),I(A),I(A),I(A),I(A),I(A),I(A),I(A) | I(G),I(A),I(A),I(A),I(A),I(A),I(A),I(C),I(A),I(G),I(A),I(C),I(A),I(A) | I(A),I(A),I(A),I(T),I(C),I(A),I(A),I(A),I(A),I(A),I(A),I(C),I(A),I(A) | I(C),I(G),I(C),I(G),I(A),I(A),I(G),I(A),I(A),I(C),I(C),I(A),I(A),I(C) | I(G),I(C),I(C),I(C),I(A),I(A),I(G),I(A),I(A),I(A),I(A),I(A),I(C),I(A) | I(A),I(C),I(A),I(A),I(A),I(A),I(A),I(A),I(A),I(A),I(C),I(A),I(A),I(A) | I(A),I(A),I(A),I(C),I(A),I(A),I(G),I(A),I(C),I(C),I(A),I(C),I(A),I(A) | I(A),I(A),I(A),I(C),I(C),I(A),I(C),I(A),I(A),I(A),I(A),I(A),I(A),I(A) | I(A),I(G),I(A),I(A),I(A),I(C),I(C),I(A),I(A),I(A),I(C),I(A),I(A),I(A) |];
