benchmark_str_length/p1_10_14-1.txt
{
	"num_strings": 10,
	"alphabet": "ACGT",
	"strings": [
		"CAACCAAAAACCAA",
		"AAAAGAAAAAAAAA",
		"GAAAAAACAGACAA",
		"AAATCAAAAAACAA",
		"CGCGAAGAACCAAC",
		"GCCCAAGAAAAACA",
		"ACAAAAAAAACAAA",
		"AAACAAGACCACAA",
		"AAACCACAAAAAAA",
		"AGAAACCAAACAAA"
	],
	"str_length":[14,14,14,14,14,14,14,14,14,14]
}